p cnf 964 2476
51 -698 -1 0
-51 698 0
-51 1 0
52 -51 -3 0
-52 51 0
-52 3 0
53 -5 -699 0
-53 5 0
-53 699 0
54 -53 -700 0
-54 53 0
-54 700 0
55 -701 -702 0
-55 701 0
-55 702 0
56 -7 -6 0
-56 7 0
-56 6 0
57 -56 -8 0
-57 56 0
-57 8 0
58 -703 -55 0
-58 703 0
-58 55 0
59 -10 -704 0
-59 10 0
-59 704 0
60 -59 -705 0
-60 59 0
-60 705 0
61 -706 -58 0
-61 706 0
-61 58 0
62 -13 -707 0
-62 13 0
-62 707 0
63 -62 -14 0
-63 62 0
-63 14 0
64 -708 -61 0
-64 708 0
-64 61 0
65 -16 -709 0
-65 16 0
-65 709 0
66 -65 -710 0
-66 65 0
-66 710 0
67 -711 -64 0
-67 711 0
-67 64 0
68 -19 -18 0
-68 19 0
-68 18 0
69 -68 -14 0
-69 68 0
-69 14 0
70 -712 -67 0
-70 712 0
-70 67 0
71 -21 -713 0
-71 21 0
-71 713 0
72 -71 -714 0
-72 71 0
-72 714 0
73 -715 -70 0
-73 715 0
-73 70 0
74 -15 -13 0
-74 15 0
-74 13 0
75 -74 -23 0
-75 74 0
-75 23 0
76 -716 -73 0
-76 716 0
-76 73 0
77 -24 -23 0
-77 24 0
-77 23 0
78 -77 -717 0
-78 77 0
-78 717 0
79 -718 -76 0
-79 718 0
-79 76 0
80 -26 -10 0
-80 26 0
-80 10 0
81 -80 -719 0
-81 80 0
-81 719 0
82 -720 -79 0
-82 720 0
-82 79 0
83 -721 -722 0
-83 721 0
-83 722 0
84 -83 -723 0
-84 83 0
-84 723 0
85 -724 -82 0
-85 724 0
-85 82 0
86 -725 -28 0
-86 725 0
-86 28 0
87 -86 -23 0
-87 86 0
-87 23 0
88 -726 -85 0
-88 726 0
-88 85 0
89 -727 -705 0
-89 727 0
-89 705 0
90 -89 -31 0
-90 89 0
-90 31 0
91 -728 -88 0
-91 728 0
-91 88 0
92 -710 -7 0
-92 710 0
-92 7 0
93 -92 -729 0
-93 92 0
-93 729 0
94 -730 -91 0
-94 730 0
-94 91 0
95 -731 -18 0
-95 731 0
-95 18 0
96 -95 -732 0
-96 95 0
-96 732 0
97 -733 -94 0
-97 733 0
-97 94 0
98 -734 -18 0
-98 734 0
-98 18 0
99 -98 -729 0
-99 98 0
-99 729 0
100 -735 -97 0
-100 735 0
-100 97 0
101 -736 -725 0
-101 736 0
-101 725 0
102 -101 -12 0
-102 101 0
-102 12 0
103 -737 -100 0
-103 737 0
-103 100 0
104 -27 -738 0
-104 27 0
-104 738 0
105 -104 -16 0
-105 104 0
-105 16 0
106 -739 -103 0
-106 739 0
-106 103 0
107 -740 -741 0
-107 740 0
-107 741 0
108 -107 -5 0
-108 107 0
-108 5 0
109 -742 -106 0
-109 742 0
-109 106 0
110 -38 -29 0
-110 38 0
-110 29 0
111 -110 -39 0
-111 110 0
-111 39 0
112 -743 -109 0
-112 743 0
-112 109 0
113 -713 -744 0
-113 713 0
-113 744 0
114 -113 -745 0
-114 113 0
-114 745 0
115 -746 -112 0
-115 746 0
-115 112 0
116 -40 -34 0
-116 40 0
-116 34 0
117 -116 -33 0
-117 116 0
-117 33 0
118 -747 -115 0
-118 747 0
-118 115 0
119 -29 -27 0
-119 29 0
-119 27 0
120 -119 -38 0
-120 119 0
-120 38 0
121 -748 -118 0
-121 748 0
-121 118 0
122 -35 -725 0
-122 35 0
-122 725 0
123 -122 -749 0
-123 122 0
-123 749 0
124 -750 -121 0
-124 750 0
-124 121 0
125 -22 -1 0
-125 22 0
-125 1 0
126 -125 -751 0
-126 125 0
-126 751 0
127 -752 -124 0
-127 752 0
-127 124 0
128 -741 -32 0
-128 741 0
-128 32 0
129 -128 -19 0
-129 128 0
-129 19 0
130 -753 -127 0
-130 753 0
-130 127 0
131 -42 -2 0
-131 42 0
-131 2 0
132 -131 -17 0
-132 131 0
-132 17 0
133 -754 -130 0
-133 754 0
-133 130 0
134 -713 -699 0
-134 713 0
-134 699 0
135 -134 -15 0
-135 134 0
-135 15 0
136 -755 -133 0
-136 755 0
-136 133 0
137 -43 -11 0
-137 43 0
-137 11 0
138 -137 -732 0
-138 137 0
-138 732 0
139 -756 -136 0
-139 756 0
-139 136 0
140 -734 -33 0
-140 734 0
-140 33 0
141 -140 -729 0
-141 140 0
-141 729 0
142 -757 -139 0
-142 757 0
-142 139 0
143 -44 -731 0
-143 44 0
-143 731 0
144 -143 -721 0
-144 143 0
-144 721 0
145 -758 -142 0
-145 758 0
-145 142 0
146 -749 -19 0
-146 749 0
-146 19 0
147 -146 -717 0
-147 146 0
-147 717 0
148 -759 -145 0
-148 759 0
-148 145 0
149 -760 -761 0
-149 760 0
-149 761 0
150 -149 -751 0
-150 149 0
-150 751 0
151 -762 -148 0
-151 762 0
-151 148 0
152 -734 -27 0
-152 734 0
-152 27 0
153 -152 -763 0
-153 152 0
-153 763 0
154 -764 -151 0
-154 764 0
-154 151 0
155 -731 -761 0
-155 731 0
-155 761 0
156 -155 -745 0
-156 155 0
-156 745 0
157 -765 -154 0
-157 765 0
-157 154 0
158 -766 -767 0
-158 766 0
-158 767 0
159 -158 -25 0
-159 158 0
-159 25 0
160 -768 -157 0
-160 768 0
-160 157 0
161 -24 -699 0
-161 24 0
-161 699 0
162 -161 -707 0
-162 161 0
-162 707 0
163 -769 -160 0
-163 769 0
-163 160 0
164 -770 -46 0
-164 770 0
-164 46 0
165 -164 -745 0
-165 164 0
-165 745 0
166 -771 -163 0
-166 771 0
-166 163 0
167 -719 -19 0
-167 719 0
-167 19 0
168 -167 -22 0
-168 167 0
-168 22 0
169 -772 -166 0
-169 772 0
-169 166 0
170 -21 -773 0
-170 21 0
-170 773 0
171 -170 -745 0
-171 170 0
-171 745 0
172 -774 -169 0
-172 774 0
-172 169 0
173 -732 -717 0
-173 732 0
-173 717 0
174 -173 -48 0
-174 173 0
-174 48 0
175 -775 -172 0
-175 775 0
-175 172 0
176 -44 -4 0
-176 44 0
-176 4 0
177 -176 -33 0
-177 176 0
-177 33 0
178 -776 -175 0
-178 776 0
-178 175 0
179 -777 -13 0
-179 777 0
-179 13 0
180 -179 -23 0
-180 179 0
-180 23 0
181 -778 -178 0
-181 778 0
-181 178 0
182 -779 -1 0
-182 779 0
-182 1 0
183 -182 -707 0
-183 182 0
-183 707 0
184 -780 -181 0
-184 780 0
-184 181 0
185 -741 -18 0
-185 741 0
-185 18 0
186 -185 -17 0
-186 185 0
-186 17 0
187 -781 -184 0
-187 781 0
-187 184 0
188 -745 -24 0
-188 745 0
-188 24 0
189 -188 -8 0
-189 188 0
-189 8 0
190 -782 -187 0
-190 782 0
-190 187 0
191 -50 -738 0
-191 50 0
-191 738 0
192 -191 -770 0
-192 191 0
-192 770 0
193 -783 -190 0
-193 783 0
-193 190 0
194 -38 -20 0
-194 38 0
-194 20 0
195 -194 -745 0
-195 194 0
-195 745 0
196 -784 -193 0
-196 784 0
-196 193 0
197 -734 -26 0
-197 734 0
-197 26 0
198 -197 -700 0
-198 197 0
-198 700 0
199 -785 -196 0
-199 785 0
-199 196 0
200 -779 -736 0
-200 779 0
-200 736 0
201 -200 -786 0
-201 200 0
-201 786 0
202 -787 -199 0
-202 787 0
-202 199 0
203 -779 -741 0
-203 779 0
-203 741 0
204 -203 -34 0
-204 203 0
-204 34 0
205 -788 -202 0
-205 788 0
-205 202 0
206 -26 -11 0
-206 26 0
-206 11 0
207 -206 -745 0
-207 206 0
-207 745 0
208 -789 -205 0
-208 789 0
-208 205 0
209 -10 -6 0
-209 10 0
-209 6 0
210 -209 -790 0
-210 209 0
-210 790 0
211 -791 -208 0
-211 791 0
-211 208 0
212 -790 -792 0
-212 790 0
-212 792 0
213 -212 -31 0
-213 212 0
-213 31 0
214 -793 -211 0
-214 793 0
-214 211 0
215 -699 -698 0
-215 699 0
-215 698 0
216 -215 -49 0
-216 215 0
-216 49 0
217 -794 -214 0
-217 794 0
-217 214 0
218 -46 -21 0
-218 46 0
-218 21 0
219 -218 -763 0
-219 218 0
-219 763 0
220 -795 -217 0
-220 795 0
-220 217 0
221 -40 -11 0
-221 40 0
-221 11 0
222 -221 -8 0
-222 221 0
-222 8 0
223 -796 -220 0
-223 796 0
-223 220 0
224 -30 -15 0
-224 30 0
-224 15 0
225 -224 -790 0
-225 224 0
-225 790 0
226 -797 -223 0
-226 797 0
-226 223 0
227 -786 -798 0
-227 786 0
-227 798 0
228 -227 -770 0
-228 227 0
-228 770 0
229 -799 -226 0
-229 799 0
-229 226 0
230 -40 -731 0
-230 40 0
-230 731 0
231 -230 -8 0
-231 230 0
-231 8 0
232 -800 -229 0
-232 800 0
-232 229 0
233 -35 -23 0
-233 35 0
-233 23 0
234 -233 -31 0
-234 233 0
-234 31 0
235 -801 -232 0
-235 801 0
-235 232 0
236 -35 -11 0
-236 35 0
-236 11 0
237 -236 -802 0
-237 236 0
-237 802 0
238 -803 -235 0
-238 803 0
-238 235 0
239 -766 -707 0
-239 766 0
-239 707 0
240 -239 -761 0
-240 239 0
-240 761 0
241 -804 -238 0
-241 804 0
-241 238 0
242 -28 -713 0
-242 28 0
-242 713 0
243 -242 -729 0
-243 242 0
-243 729 0
244 -805 -241 0
-244 805 0
-244 241 0
245 -699 -1 0
-245 699 0
-245 1 0
246 -245 -806 0
-246 245 0
-246 806 0
247 -807 -244 0
-247 807 0
-247 244 0
248 -32 -19 0
-248 32 0
-248 19 0
249 -248 -22 0
-249 248 0
-249 22 0
250 -808 -247 0
-250 808 0
-250 247 0
251 -37 -699 0
-251 37 0
-251 699 0
252 -251 -14 0
-252 251 0
-252 14 0
253 -809 -250 0
-253 809 0
-253 250 0
254 -779 -38 0
-254 779 0
-254 38 0
255 -254 -745 0
-255 254 0
-255 745 0
256 -810 -253 0
-256 810 0
-256 253 0
257 -20 -11 0
-257 20 0
-257 11 0
258 -257 -49 0
-258 257 0
-258 49 0
259 -811 -256 0
-259 811 0
-259 256 0
260 -48 -32 0
-260 48 0
-260 32 0
261 -260 -812 0
-261 260 0
-261 812 0
262 -813 -259 0
-262 813 0
-262 259 0
263 -24 -806 0
-263 24 0
-263 806 0
264 -263 -50 0
-264 263 0
-264 50 0
265 -814 -262 0
-265 814 0
-265 262 0
266 -128 -47 0
-266 128 0
-266 47 0
267 -815 -265 0
-267 815 0
-267 265 0
268 -49 -741 0
-268 49 0
-268 741 0
269 -268 -798 0
-269 268 0
-269 798 0
270 -816 -267 0
-270 816 0
-270 267 0
271 -42 -709 0
-271 42 0
-271 709 0
272 -271 -723 0
-272 271 0
-272 723 0
273 -817 -270 0
-273 817 0
-273 270 0
274 -30 -713 0
-274 30 0
-274 713 0
275 -274 -40 0
-275 274 0
-275 40 0
276 -818 -273 0
-276 818 0
-276 273 0
277 -32 -6 0
-277 32 0
-277 6 0
278 -277 -812 0
-278 277 0
-278 812 0
279 -819 -276 0
-279 819 0
-279 276 0
280 -47 -6 0
-280 47 0
-280 6 0
281 -280 -820 0
-281 280 0
-281 820 0
282 -821 -279 0
-282 821 0
-282 279 0
283 -749 -806 0
-283 749 0
-283 806 0
284 -283 -49 0
-284 283 0
-284 49 0
285 -822 -282 0
-285 822 0
-285 282 0
286 -709 -751 0
-286 709 0
-286 751 0
287 -286 -729 0
-287 286 0
-287 729 0
288 -823 -285 0
-288 823 0
-288 285 0
289 -766 -21 0
-289 766 0
-289 21 0
290 -289 -751 0
-290 289 0
-290 751 0
291 -824 -288 0
-291 824 0
-291 288 0
292 -32 -705 0
-292 32 0
-292 705 0
293 -292 -7 0
-293 292 0
-293 7 0
294 -825 -291 0
-294 825 0
-294 291 0
295 -767 -710 0
-295 767 0
-295 710 0
296 -295 -786 0
-296 295 0
-296 786 0
297 -826 -294 0
-297 826 0
-297 294 0
298 -45 -734 0
-298 45 0
-298 734 0
299 -298 -14 0
-299 298 0
-299 14 0
300 -827 -297 0
-300 827 0
-300 297 0
301 -770 -738 0
-301 770 0
-301 738 0
302 -301 -763 0
-302 301 0
-302 763 0
303 -828 -300 0
-303 828 0
-303 300 0
304 -727 -744 0
-304 727 0
-304 744 0
305 -304 -46 0
-305 304 0
-305 46 0
306 -829 -303 0
-306 829 0
-306 303 0
307 -766 -41 0
-307 766 0
-307 41 0
308 -307 -23 0
-308 307 0
-308 23 0
309 -830 -306 0
-309 830 0
-309 306 0
310 -741 -738 0
-310 741 0
-310 738 0
311 -310 -709 0
-311 310 0
-311 709 0
312 -831 -309 0
-312 831 0
-312 309 0
313 -777 -705 0
-313 777 0
-313 705 0
314 -313 -17 0
-314 313 0
-314 17 0
315 -832 -312 0
-315 832 0
-315 312 0
316 -749 -707 0
-316 749 0
-316 707 0
317 -316 -49 0
-317 316 0
-317 49 0
318 -833 -315 0
-318 833 0
-318 315 0
319 -19 -744 0
-319 19 0
-319 744 0
320 -319 -798 0
-320 319 0
-320 798 0
321 -834 -318 0
-321 834 0
-321 318 0
322 -27 -705 0
-322 27 0
-322 705 0
323 -322 -713 0
-323 322 0
-323 713 0
324 -835 -321 0
-324 835 0
-324 321 0
325 -744 -9 0
-325 744 0
-325 9 0
326 -325 -5 0
-326 325 0
-326 5 0
327 -836 -324 0
-327 836 0
-327 324 0
328 -40 -773 0
-328 40 0
-328 773 0
329 -328 -17 0
-329 328 0
-329 17 0
330 -837 -327 0
-330 837 0
-330 327 0
331 -12 -698 0
-331 12 0
-331 698 0
332 -331 -15 0
-332 331 0
-332 15 0
333 -838 -330 0
-333 838 0
-333 330 0
334 -777 -773 0
-334 777 0
-334 773 0
335 -334 -19 0
-335 334 0
-335 19 0
336 -839 -333 0
-336 839 0
-336 333 0
337 -766 -773 0
-337 766 0
-337 773 0
338 -337 -38 0
-338 337 0
-338 38 0
339 -840 -336 0
-339 840 0
-339 336 0
340 -15 -699 0
-340 15 0
-340 699 0
341 -340 -722 0
-341 340 0
-341 722 0
342 -841 -339 0
-342 841 0
-342 339 0
343 -707 -700 0
-343 707 0
-343 700 0
344 -343 -751 0
-344 343 0
-344 751 0
345 -842 -342 0
-345 842 0
-345 342 0
346 -20 -722 0
-346 20 0
-346 722 0
347 -346 -50 0
-347 346 0
-347 50 0
348 -843 -345 0
-348 843 0
-348 345 0
349 -709 -1 0
-349 709 0
-349 1 0
350 -349 -25 0
-350 349 0
-350 25 0
351 -844 -348 0
-351 844 0
-351 348 0
352 -45 -4 0
-352 45 0
-352 4 0
353 -352 -14 0
-353 352 0
-353 14 0
354 -845 -351 0
-354 845 0
-354 351 0
355 -767 -744 0
-355 767 0
-355 744 0
356 -355 -15 0
-356 355 0
-356 15 0
357 -846 -354 0
-357 846 0
-357 354 0
358 -29 -1 0
-358 29 0
-358 1 0
359 -358 -15 0
-359 358 0
-359 15 0
360 -847 -357 0
-360 847 0
-360 357 0
361 -45 -848 0
-361 45 0
-361 848 0
362 -361 -849 0
-362 361 0
-362 849 0
363 -850 -360 0
-363 850 0
-363 360 0
364 -802 -738 0
-364 802 0
-364 738 0
365 -364 -714 0
-365 364 0
-365 714 0
366 -851 -363 0
-366 851 0
-366 363 0
367 -42 -23 0
-367 42 0
-367 23 0
368 -367 -751 0
-368 367 0
-368 751 0
369 -852 -366 0
-369 852 0
-369 366 0
370 -741 -707 0
-370 741 0
-370 707 0
371 -370 -751 0
-371 370 0
-371 751 0
372 -853 -369 0
-372 853 0
-372 369 0
373 -37 -11 0
-373 37 0
-373 11 0
374 -373 -38 0
-374 373 0
-374 38 0
375 -854 -372 0
-375 854 0
-375 372 0
376 -42 -37 0
-376 42 0
-376 37 0
377 -376 -820 0
-377 376 0
-377 820 0
378 -855 -375 0
-378 855 0
-378 375 0
379 -740 -1 0
-379 740 0
-379 1 0
380 -379 -3 0
-380 379 0
-380 3 0
381 -856 -378 0
-381 856 0
-381 378 0
382 -32 -709 0
-382 32 0
-382 709 0
383 -382 -5 0
-383 382 0
-383 5 0
384 -857 -381 0
-384 857 0
-384 381 0
385 -40 -16 0
-385 40 0
-385 16 0
386 -385 -33 0
-386 385 0
-386 33 0
387 -858 -384 0
-387 858 0
-387 384 0
388 -36 -734 0
-388 36 0
-388 734 0
389 -388 -50 0
-389 388 0
-389 50 0
390 -859 -387 0
-390 859 0
-390 387 0
391 -47 -719 0
-391 47 0
-391 719 0
392 -391 -820 0
-392 391 0
-392 820 0
393 -860 -390 0
-393 860 0
-393 390 0
394 -18 -1 0
-394 18 0
-394 1 0
395 -394 -734 0
-395 394 0
-395 734 0
396 -861 -393 0
-396 861 0
-396 393 0
397 -779 -37 0
-397 779 0
-397 37 0
398 -397 -761 0
-398 397 0
-398 761 0
399 -862 -396 0
-399 862 0
-399 396 0
400 -740 -761 0
-400 740 0
-400 761 0
401 -400 -786 0
-401 400 0
-401 786 0
402 -863 -399 0
-402 863 0
-402 399 0
403 -41 -738 0
-403 41 0
-403 738 0
404 -403 -707 0
-404 403 0
-404 707 0
405 -864 -402 0
-405 864 0
-405 402 0
406 -865 -9 0
-406 865 0
-406 9 0
407 -406 -39 0
-407 406 0
-407 39 0
408 -866 -405 0
-408 866 0
-408 405 0
409 -849 -36 0
-409 849 0
-409 36 0
410 -409 -49 0
-410 409 0
-410 49 0
411 -867 -408 0
-411 867 0
-411 408 0
412 -848 -806 0
-412 848 0
-412 806 0
413 -412 -5 0
-413 412 0
-413 5 0
414 -868 -411 0
-414 868 0
-414 411 0
415 -41 -725 0
-415 41 0
-415 725 0
416 -415 -786 0
-416 415 0
-416 786 0
417 -869 -414 0
-417 869 0
-417 414 0
418 -713 -2 0
-418 713 0
-418 2 0
419 -418 -15 0
-419 418 0
-419 15 0
420 -870 -417 0
-420 870 0
-420 417 0
421 -42 -10 0
-421 42 0
-421 10 0
422 -421 -729 0
-422 421 0
-422 729 0
423 -871 -420 0
-423 871 0
-423 420 0
424 -734 -707 0
-424 734 0
-424 707 0
425 -424 -8 0
-425 424 0
-425 8 0
426 -872 -423 0
-426 872 0
-426 423 0
427 -41 -734 0
-427 41 0
-427 734 0
428 -427 -760 0
-428 427 0
-428 760 0
429 -873 -426 0
-429 873 0
-429 426 0
430 -34 -707 0
-430 34 0
-430 707 0
431 -430 -31 0
-431 430 0
-431 31 0
432 -874 -429 0
-432 874 0
-432 429 0
433 -779 -709 0
-433 779 0
-433 709 0
434 -433 -770 0
-434 433 0
-434 770 0
435 -875 -432 0
-435 875 0
-435 432 0
436 -37 -725 0
-436 37 0
-436 725 0
437 -436 -717 0
-437 436 0
-437 717 0
438 -876 -435 0
-438 876 0
-438 435 0
439 -35 -2 0
-439 35 0
-439 2 0
440 -439 -812 0
-440 439 0
-440 812 0
441 -877 -438 0
-441 877 0
-441 438 0
442 -41 -704 0
-442 41 0
-442 704 0
443 -442 -707 0
-443 442 0
-443 707 0
444 -878 -441 0
-444 878 0
-444 441 0
445 -50 -790 0
-445 50 0
-445 790 0
446 -445 -8 0
-446 445 0
-446 8 0
447 -879 -444 0
-447 879 0
-447 444 0
448 -779 -30 0
-448 779 0
-448 30 0
449 -448 -14 0
-449 448 0
-449 14 0
450 -880 -447 0
-450 880 0
-450 447 0
451 -4 -2 0
-451 4 0
-451 2 0
452 -451 -34 0
-452 451 0
-452 34 0
453 -881 -450 0
-453 881 0
-453 450 0
454 -42 -882 0
-454 42 0
-454 882 0
455 -454 -717 0
-455 454 0
-455 717 0
456 -883 -453 0
-456 883 0
-456 453 0
457 -790 -37 0
-457 790 0
-457 37 0
458 -457 -8 0
-458 457 0
-458 8 0
459 -884 -456 0
-459 884 0
-459 456 0
460 -740 -11 0
-460 740 0
-460 11 0
461 -460 -713 0
-461 460 0
-461 713 0
462 -885 -459 0
-462 885 0
-462 459 0
463 -736 -738 0
-463 736 0
-463 738 0
464 -463 -714 0
-464 463 0
-464 714 0
465 -886 -462 0
-465 886 0
-465 462 0
466 -32 -725 0
-466 32 0
-466 725 0
467 -466 -700 0
-467 466 0
-467 700 0
468 -887 -465 0
-468 887 0
-468 465 0
469 -38 -734 0
-469 38 0
-469 734 0
470 -469 -25 0
-470 469 0
-470 25 0
471 -888 -468 0
-471 888 0
-471 468 0
472 -721 -700 0
-472 721 0
-472 700 0
473 -472 -25 0
-473 472 0
-473 25 0
474 -889 -471 0
-474 889 0
-474 471 0
475 -790 -19 0
-475 790 0
-475 19 0
476 -475 -763 0
-476 475 0
-476 763 0
477 -890 -474 0
-477 890 0
-477 474 0
478 -41 -2 0
-478 41 0
-478 2 0
479 -478 -3 0
-479 478 0
-479 3 0
480 -891 -477 0
-480 891 0
-480 477 0
481 -35 -792 0
-481 35 0
-481 792 0
482 -481 -763 0
-482 481 0
-482 763 0
483 -892 -480 0
-483 892 0
-483 480 0
484 -36 -12 0
-484 36 0
-484 12 0
485 -484 -31 0
-485 484 0
-485 31 0
486 -893 -483 0
-486 893 0
-486 483 0
487 -37 -15 0
-487 37 0
-487 15 0
488 -487 -721 0
-488 487 0
-488 721 0
489 -894 -486 0
-489 894 0
-489 486 0
490 -740 -24 0
-490 740 0
-490 24 0
491 -490 -20 0
-491 490 0
-491 20 0
492 -895 -489 0
-492 895 0
-492 489 0
493 -779 -727 0
-493 779 0
-493 727 0
494 -493 -700 0
-494 493 0
-494 700 0
495 -896 -492 0
-495 896 0
-495 492 0
496 -779 -773 0
-496 779 0
-496 773 0
497 -496 -798 0
-497 496 0
-497 798 0
498 -897 -495 0
-498 897 0
-498 495 0
499 -704 -773 0
-499 704 0
-499 773 0
500 -499 -41 0
-500 499 0
-500 41 0
501 -898 -498 0
-501 898 0
-501 498 0
502 -28 -24 0
-502 28 0
-502 24 0
503 -502 -760 0
-503 502 0
-503 760 0
504 -899 -501 0
-504 899 0
-504 501 0
505 -40 -18 0
-505 40 0
-505 18 0
506 -505 -25 0
-506 505 0
-506 25 0
507 -900 -504 0
-507 900 0
-507 504 0
508 -738 -882 0
-508 738 0
-508 882 0
509 -508 -802 0
-509 508 0
-509 802 0
510 -901 -507 0
-510 901 0
-510 507 0
511 -45 -699 0
-511 45 0
-511 699 0
512 -511 -40 0
-512 511 0
-512 40 0
513 -902 -510 0
-513 902 0
-513 510 0
514 -32 -865 0
-514 32 0
-514 865 0
515 -514 -786 0
-515 514 0
-515 786 0
516 -903 -513 0
-516 903 0
-516 513 0
517 -705 -1 0
-517 705 0
-517 1 0
518 -517 -849 0
-518 517 0
-518 849 0
519 -904 -516 0
-519 904 0
-519 516 0
520 -740 -806 0
-520 740 0
-520 806 0
521 -520 -33 0
-521 520 0
-521 33 0
522 -905 -519 0
-522 905 0
-522 519 0
523 -725 -18 0
-523 725 0
-523 18 0
524 -523 -10 0
-524 523 0
-524 10 0
525 -906 -522 0
-525 906 0
-525 522 0
526 -33 -26 0
-526 33 0
-526 26 0
527 -526 -729 0
-527 526 0
-527 729 0
528 -907 -525 0
-528 907 0
-528 525 0
529 -760 -736 0
-529 760 0
-529 736 0
530 -529 -745 0
-530 529 0
-530 745 0
531 -908 -528 0
-531 908 0
-531 528 0
532 -40 -727 0
-532 40 0
-532 727 0
533 -532 -3 0
-533 532 0
-533 3 0
534 -909 -531 0
-534 909 0
-534 531 0
535 -242 -770 0
-535 242 0
-535 770 0
536 -910 -534 0
-536 910 0
-536 534 0
537 -24 -15 0
-537 24 0
-537 15 0
538 -537 -39 0
-538 537 0
-538 39 0
539 -911 -536 0
-539 911 0
-539 536 0
540 -727 -20 0
-540 727 0
-540 20 0
541 -540 -45 0
-541 540 0
-541 45 0
542 -912 -539 0
-542 912 0
-542 539 0
543 -849 -37 0
-543 849 0
-543 37 0
544 -543 -763 0
-544 543 0
-544 763 0
545 -913 -542 0
-545 913 0
-545 542 0
546 -736 -723 0
-546 736 0
-546 723 0
547 -546 -47 0
-547 546 0
-547 47 0
548 -914 -545 0
-548 914 0
-548 545 0
549 -731 -710 0
-549 731 0
-549 710 0
550 -549 -47 0
-550 549 0
-550 47 0
551 -915 -548 0
-551 915 0
-551 548 0
552 -29 -24 0
-552 29 0
-552 24 0
553 -552 -50 0
-553 552 0
-553 50 0
554 -916 -551 0
-554 916 0
-554 551 0
555 -731 -2 0
-555 731 0
-555 2 0
556 -555 -740 0
-556 555 0
-556 740 0
557 -917 -554 0
-557 917 0
-557 554 0
558 -725 -848 0
-558 725 0
-558 848 0
559 -558 -10 0
-559 558 0
-559 10 0
560 -918 -557 0
-560 918 0
-560 557 0
561 -749 -792 0
-561 749 0
-561 792 0
562 -561 -786 0
-562 561 0
-562 786 0
563 -919 -560 0
-563 919 0
-563 560 0
564 -779 -17 0
-564 779 0
-564 17 0
565 -564 -786 0
-565 564 0
-565 786 0
566 -920 -563 0
-566 920 0
-566 563 0
567 -705 -4 0
-567 705 0
-567 4 0
568 -567 -3 0
-568 567 0
-568 3 0
569 -921 -566 0
-569 921 0
-569 566 0
570 -34 -10 0
-570 34 0
-570 10 0
571 -570 -14 0
-571 570 0
-571 14 0
572 -922 -569 0
-572 922 0
-572 569 0
573 -786 -34 0
-573 786 0
-573 34 0
574 -573 -39 0
-574 573 0
-574 39 0
575 -923 -572 0
-575 923 0
-575 572 0
576 -15 -11 0
-576 15 0
-576 11 0
577 -576 -23 0
-577 576 0
-577 23 0
578 -924 -575 0
-578 924 0
-578 575 0
579 -790 -21 0
-579 790 0
-579 21 0
580 -579 -745 0
-580 579 0
-580 745 0
581 -925 -578 0
-581 925 0
-581 578 0
582 -23 -1 0
-582 23 0
-582 1 0
583 -582 -717 0
-583 582 0
-583 717 0
584 -926 -581 0
-584 926 0
-584 581 0
585 -767 -10 0
-585 767 0
-585 10 0
586 -585 -777 0
-586 585 0
-586 777 0
587 -927 -584 0
-587 927 0
-587 584 0
588 -749 -38 0
-588 749 0
-588 38 0
589 -588 -763 0
-589 588 0
-589 763 0
590 -928 -587 0
-590 928 0
-590 587 0
591 -740 -28 0
-591 740 0
-591 28 0
592 -591 -713 0
-592 591 0
-592 713 0
593 -929 -590 0
-593 929 0
-593 590 0
594 -732 -16 0
-594 732 0
-594 16 0
595 -594 -770 0
-595 594 0
-595 770 0
596 -930 -593 0
-596 930 0
-596 593 0
597 -736 -32 0
-597 736 0
-597 32 0
598 -597 -39 0
-598 597 0
-598 39 0
599 -931 -596 0
-599 931 0
-599 596 0
600 -30 -10 0
-600 30 0
-600 10 0
601 -600 -50 0
-601 600 0
-601 50 0
602 -932 -599 0
-602 932 0
-602 599 0
603 -36 -15 0
-603 36 0
-603 15 0
604 -603 -751 0
-604 603 0
-604 751 0
605 -933 -602 0
-605 933 0
-605 602 0
606 -26 -13 0
-606 26 0
-606 13 0
607 -606 -820 0
-607 606 0
-607 820 0
608 -934 -605 0
-608 934 0
-608 605 0
609 -17 -761 0
-609 17 0
-609 761 0
610 -609 -812 0
-610 609 0
-610 812 0
611 -935 -608 0
-611 935 0
-611 608 0
612 -34 -732 0
-612 34 0
-612 732 0
613 -612 -14 0
-613 612 0
-613 14 0
614 -936 -611 0
-614 936 0
-614 611 0
615 -777 -2 0
-615 777 0
-615 2 0
616 -615 -39 0
-616 615 0
-616 39 0
617 -937 -614 0
-617 937 0
-617 614 0
618 -40 -761 0
-618 40 0
-618 761 0
619 -618 -14 0
-619 618 0
-619 14 0
620 -938 -617 0
-620 938 0
-620 617 0
621 -719 -761 0
-621 719 0
-621 761 0
622 -621 -19 0
-622 621 0
-622 19 0
623 -939 -620 0
-623 939 0
-623 620 0
624 -704 -761 0
-624 704 0
-624 761 0
625 -624 -729 0
-625 624 0
-625 729 0
626 -940 -623 0
-626 940 0
-626 623 0
627 -36 -29 0
-627 36 0
-627 29 0
628 -627 -39 0
-628 627 0
-628 39 0
629 -941 -626 0
-629 941 0
-629 626 0
630 -44 -767 0
-630 44 0
-630 767 0
631 -630 -17 0
-631 630 0
-631 17 0
632 -942 -629 0
-632 942 0
-632 629 0
633 -767 -812 0
-633 767 0
-633 812 0
634 -633 -763 0
-634 633 0
-634 763 0
635 -943 -632 0
-635 943 0
-635 632 0
636 -802 -9 0
-636 802 0
-636 9 0
637 -636 -3 0
-637 636 0
-637 3 0
638 -944 -635 0
-638 944 0
-638 635 0
639 -802 -698 0
-639 802 0
-639 698 0
640 -639 -760 0
-640 639 0
-640 760 0
641 -945 -638 0
-641 945 0
-641 638 0
642 -713 -806 0
-642 713 0
-642 806 0
643 -642 -39 0
-643 642 0
-643 39 0
644 -946 -641 0
-644 946 0
-644 641 0
645 -777 -699 0
-645 777 0
-645 699 0
646 -645 -751 0
-646 645 0
-646 751 0
647 -947 -644 0
-647 947 0
-647 644 0
648 -49 -731 0
-648 49 0
-648 731 0
649 -648 -714 0
-649 648 0
-649 714 0
650 -948 -647 0
-650 948 0
-650 647 0
651 -44 -773 0
-651 44 0
-651 773 0
652 -651 -21 0
-652 651 0
-652 21 0
653 -949 -650 0
-653 949 0
-653 650 0
654 -731 -738 0
-654 731 0
-654 738 0
655 -654 -30 0
-655 654 0
-655 30 0
656 -950 -653 0
-656 950 0
-656 653 0
657 -29 -10 0
-657 29 0
-657 10 0
658 -657 -820 0
-658 657 0
-658 820 0
659 -951 -656 0
-659 951 0
-659 656 0
660 -51 -23 0
-660 51 0
-660 23 0
661 -952 -659 0
-661 952 0
-661 659 0
662 -744 -710 0
-662 744 0
-662 710 0
663 -662 -745 0
-663 662 0
-663 745 0
664 -953 -661 0
-664 953 0
-664 661 0
665 -37 -20 0
-665 37 0
-665 20 0
666 -665 -732 0
-666 665 0
-666 732 0
667 -954 -664 0
-667 954 0
-667 664 0
668 -49 -15 0
-668 49 0
-668 15 0
669 -668 -38 0
-669 668 0
-669 38 0
670 -955 -667 0
-670 955 0
-670 667 0
671 -744 -6 0
-671 744 0
-671 6 0
672 -671 -705 0
-672 671 0
-672 705 0
673 -956 -670 0
-673 956 0
-673 670 0
674 -767 -28 0
-674 767 0
-674 28 0
675 -674 -38 0
-675 674 0
-675 38 0
676 -957 -673 0
-676 957 0
-676 673 0
677 -704 -1 0
-677 704 0
-677 1 0
678 -677 -717 0
-678 677 0
-678 717 0
679 -958 -676 0
-679 958 0
-679 676 0
680 -849 -792 0
-680 849 0
-680 792 0
681 -680 -14 0
-681 680 0
-681 14 0
682 -959 -679 0
-682 959 0
-682 679 0
683 -19 -6 0
-683 19 0
-683 6 0
684 -683 -31 0
-684 683 0
-684 31 0
685 -960 -682 0
-685 960 0
-685 682 0
686 -725 -9 0
-686 725 0
-686 9 0
687 -686 -734 0
-687 686 0
-687 734 0
688 -961 -685 0
-688 961 0
-688 685 0
689 -749 -865 0
-689 749 0
-689 865 0
690 -689 -729 0
-690 689 0
-690 729 0
691 -962 -688 0
-691 962 0
-691 688 0
692 -725 -20 0
-692 725 0
-692 20 0
693 -692 -745 0
-693 692 0
-693 745 0
694 -963 -691 0
-694 963 0
-694 691 0
695 -37 -2 0
-695 37 0
-695 2 0
696 -695 -44 0
-696 695 0
-696 44 0
697 -964 -694 0
-697 964 0
-697 694 0
-698 -2 0
698 2 0
-699 -4 0
699 4 0
-700 -3 0
700 3 0
-701 -54 0
701 54 0
-702 -52 0
702 52 0
-703 -57 0
703 57 0
-704 -9 0
704 9 0
-705 -11 0
705 11 0
-706 -60 0
706 60 0
-707 -12 0
707 12 0
-708 -63 0
708 63 0
-709 -15 0
709 15 0
-710 -17 0
710 17 0
-711 -66 0
711 66 0
-712 -69 0
712 69 0
-713 -20 0
713 20 0
-714 -22 0
714 22 0
-715 -72 0
715 72 0
-716 -75 0
716 75 0
-717 -25 0
717 25 0
-718 -78 0
718 78 0
-719 -27 0
719 27 0
-720 -81 0
720 81 0
-721 -19 0
721 19 0
-722 -13 0
722 13 0
-723 -21 0
723 21 0
-724 -84 0
724 84 0
-725 -29 0
725 29 0
-726 -87 0
726 87 0
-727 -30 0
727 30 0
-728 -90 0
728 90 0
-729 -31 0
729 31 0
-730 -93 0
730 93 0
-731 -32 0
731 32 0
-732 -33 0
732 33 0
-733 -96 0
733 96 0
-734 -34 0
734 34 0
-735 -99 0
735 99 0
-736 -35 0
736 35 0
-737 -102 0
737 102 0
-738 -24 0
738 24 0
-739 -105 0
739 105 0
-740 -37 0
740 37 0
-741 -36 0
741 36 0
-742 -108 0
742 108 0
-743 -111 0
743 111 0
-744 -18 0
744 18 0
-745 -39 0
745 39 0
-746 -114 0
746 114 0
-747 -117 0
747 117 0
-748 -120 0
748 120 0
-749 -41 0
749 41 0
-750 -123 0
750 123 0
-751 -7 0
751 7 0
-752 -126 0
752 126 0
-753 -129 0
753 129 0
-754 -132 0
754 132 0
-755 -135 0
755 135 0
-756 -138 0
756 138 0
-757 -141 0
757 141 0
-758 -144 0
758 144 0
-759 -147 0
759 147 0
-760 -38 0
760 38 0
-761 -5 0
761 5 0
-762 -150 0
762 150 0
-763 -8 0
763 8 0
-764 -153 0
764 153 0
-765 -156 0
765 156 0
-766 -45 0
766 45 0
-767 -43 0
767 43 0
-768 -159 0
768 159 0
-769 -162 0
769 162 0
-770 -47 0
770 47 0
-771 -165 0
771 165 0
-772 -168 0
772 168 0
-773 -6 0
773 6 0
-774 -171 0
774 171 0
-775 -174 0
775 174 0
-776 -177 0
776 177 0
-777 -49 0
777 49 0
-778 -180 0
778 180 0
-779 -42 0
779 42 0
-780 -183 0
780 183 0
-781 -186 0
781 186 0
-782 -189 0
782 189 0
-783 -192 0
783 192 0
-784 -195 0
784 195 0
-785 -198 0
785 198 0
-786 -50 0
786 50 0
-787 -201 0
787 201 0
-788 -204 0
788 204 0
-789 -207 0
789 207 0
-790 -44 0
790 44 0
-791 -210 0
791 210 0
-792 -16 0
792 16 0
-793 -213 0
793 213 0
-794 -216 0
794 216 0
-795 -219 0
795 219 0
-796 -222 0
796 222 0
-797 -225 0
797 225 0
-798 -23 0
798 23 0
-799 -228 0
799 228 0
-800 -231 0
800 231 0
-801 -234 0
801 234 0
-802 -46 0
802 46 0
-803 -237 0
803 237 0
-804 -240 0
804 240 0
-805 -243 0
805 243 0
-806 -10 0
806 10 0
-807 -246 0
807 246 0
-808 -249 0
808 249 0
-809 -252 0
809 252 0
-810 -255 0
810 255 0
-811 -258 0
811 258 0
-812 -14 0
812 14 0
-813 -261 0
813 261 0
-814 -264 0
814 264 0
-815 -266 0
815 266 0
-816 -269 0
816 269 0
-817 -272 0
817 272 0
-818 -275 0
818 275 0
-819 -278 0
819 278 0
-820 -48 0
820 48 0
-821 -281 0
821 281 0
-822 -284 0
822 284 0
-823 -287 0
823 287 0
-824 -290 0
824 290 0
-825 -293 0
825 293 0
-826 -296 0
826 296 0
-827 -299 0
827 299 0
-828 -302 0
828 302 0
-829 -305 0
829 305 0
-830 -308 0
830 308 0
-831 -311 0
831 311 0
-832 -314 0
832 314 0
-833 -317 0
833 317 0
-834 -320 0
834 320 0
-835 -323 0
835 323 0
-836 -326 0
836 326 0
-837 -329 0
837 329 0
-838 -332 0
838 332 0
-839 -335 0
839 335 0
-840 -338 0
840 338 0
-841 -341 0
841 341 0
-842 -344 0
842 344 0
-843 -347 0
843 347 0
-844 -350 0
844 350 0
-845 -353 0
845 353 0
-846 -356 0
846 356 0
-847 -359 0
847 359 0
-848 -28 0
848 28 0
-849 -40 0
849 40 0
-850 -362 0
850 362 0
-851 -365 0
851 365 0
-852 -368 0
852 368 0
-853 -371 0
853 371 0
-854 -374 0
854 374 0
-855 -377 0
855 377 0
-856 -380 0
856 380 0
-857 -383 0
857 383 0
-858 -386 0
858 386 0
-859 -389 0
859 389 0
-860 -392 0
860 392 0
-861 -395 0
861 395 0
-862 -398 0
862 398 0
-863 -401 0
863 401 0
-864 -404 0
864 404 0
-865 -26 0
865 26 0
-866 -407 0
866 407 0
-867 -410 0
867 410 0
-868 -413 0
868 413 0
-869 -416 0
869 416 0
-870 -419 0
870 419 0
-871 -422 0
871 422 0
-872 -425 0
872 425 0
-873 -428 0
873 428 0
-874 -431 0
874 431 0
-875 -434 0
875 434 0
-876 -437 0
876 437 0
-877 -440 0
877 440 0
-878 -443 0
878 443 0
-879 -446 0
879 446 0
-880 -449 0
880 449 0
-881 -452 0
881 452 0
-882 -1 0
882 1 0
-883 -455 0
883 455 0
-884 -458 0
884 458 0
-885 -461 0
885 461 0
-886 -464 0
886 464 0
-887 -467 0
887 467 0
-888 -470 0
888 470 0
-889 -473 0
889 473 0
-890 -476 0
890 476 0
-891 -479 0
891 479 0
-892 -482 0
892 482 0
-893 -485 0
893 485 0
-894 -488 0
894 488 0
-895 -491 0
895 491 0
-896 -494 0
896 494 0
-897 -497 0
897 497 0
-898 -500 0
898 500 0
-899 -503 0
899 503 0
-900 -506 0
900 506 0
-901 -509 0
901 509 0
-902 -512 0
902 512 0
-903 -515 0
903 515 0
-904 -518 0
904 518 0
-905 -521 0
905 521 0
-906 -524 0
906 524 0
-907 -527 0
907 527 0
-908 -530 0
908 530 0
-909 -533 0
909 533 0
-910 -535 0
910 535 0
-911 -538 0
911 538 0
-912 -541 0
912 541 0
-913 -544 0
913 544 0
-914 -547 0
914 547 0
-915 -550 0
915 550 0
-916 -553 0
916 553 0
-917 -556 0
917 556 0
-918 -559 0
918 559 0
-919 -562 0
919 562 0
-920 -565 0
920 565 0
-921 -568 0
921 568 0
-922 -571 0
922 571 0
-923 -574 0
923 574 0
-924 -577 0
924 577 0
-925 -580 0
925 580 0
-926 -583 0
926 583 0
-927 -586 0
927 586 0
-928 -589 0
928 589 0
-929 -592 0
929 592 0
-930 -595 0
930 595 0
-931 -598 0
931 598 0
-932 -601 0
932 601 0
-933 -604 0
933 604 0
-934 -607 0
934 607 0
-935 -610 0
935 610 0
-936 -613 0
936 613 0
-937 -616 0
937 616 0
-938 -619 0
938 619 0
-939 -622 0
939 622 0
-940 -625 0
940 625 0
-941 -628 0
941 628 0
-942 -631 0
942 631 0
-943 -634 0
943 634 0
-944 -637 0
944 637 0
-945 -640 0
945 640 0
-946 -643 0
946 643 0
-947 -646 0
947 646 0
-948 -649 0
948 649 0
-949 -652 0
949 652 0
-950 -655 0
950 655 0
-951 -658 0
951 658 0
-952 -660 0
952 660 0
-953 -663 0
953 663 0
-954 -666 0
954 666 0
-955 -669 0
955 669 0
-956 -672 0
956 672 0
-957 -675 0
957 675 0
-958 -678 0
958 678 0
-959 -681 0
959 681 0
-960 -684 0
960 684 0
-961 -687 0
961 687 0
-962 -690 0
962 690 0
-963 -693 0
963 693 0
-964 -696 0
964 696 0
697 0
